Route #1: 0 11 31 124 46 43 79 117 48 41 0
Route #2: 0 83 80 29 106 99 36 120 69 125 0
Route #3: 0 128 12 33 103 54 56 74 0
Route #4: 0 87 50 38 32 133 61 1 127 0
Route #5: 0 109 62 85 92 113 114 122 0
Route #6: 0 78 115 112 90 53 6 18 34 131 0
Route #7: 0 17 26 10 119 57 111 64 101 0
Route #8: 0 21 49 129 105 2 47 51 14 0
Route #9: 0 16 9 39 73 59 96 108 116 0
Route #10: 0 19 130 71 104 45 88 102 94 93 66 77 63 5 97 13 0
Route #11: 0 42 65 28 75 98 23 30 8 84 107 44 70 67 20 126 55 22 27 4 15 81 68 7 121 0
Route #12: 0 100 76 52 25 58 60 95 40 0
Route #13: 0 82 72 3 86 35 37 24 110 123 0
Route #14: 0 89 91 118 132 0
Cost 114661:
